fcc/hcp_2D
31
Line-mode  ! G M K G
Reciprocal
 0.0000000  0.0000000  0.0000000  # G
 0.5000000  0.0000000  0.0000000  # M

 0.5000000  0.0000000  0.0000000  # M
 0.3333333  0.3333333  0.0000000  # K
 
 0.3333333  0.3333333  0.0000000  # K
 0.0000000  0.0000000  0.0000000  # G
